# SETS
set WORKERS := ALICE ANDREA CHIARA ELIA FABIO FRANCO FEDERICO MATTEO MICHELE ROSSANA;
set OFFICES := OFF1 OFF2;
# PARAMETERS
param priority :=
ALICE 3
ANDREA 1
CHIARA 2
ELIA 0
FABIO 1
FRANCO 0
FEDERICO 2
MATTEO 3
MICHELE 1
ROSSANA 1;
param nb_workers_allowed :=
OFF1 6
OFF2 4;